(set-logic QF_S)
(set-option :parse-transducers true)
(set-option :produce-models true)
(define-fun-rec toLower ((x String) (y String)) Bool
   (or (and (= x "") (= y ""))
       (and (not (= x "")) (not (= y ""))
           (= (char.code (str.head y))
               (ite (and (<= 65 (char.code (str.head x)))
                       (<= (char.code (str.head x)) 90))
                   (+ (char.code (str.head x)) 32)
                   (char.code (str.head x))))
           (toLower (str.tail x) (str.tail y))))
)
(declare-fun sym205 () String)
(declare-fun sym328 () String)
(declare-fun sym725 () String)
(declare-fun sym605 () String)
(declare-fun sym409 () String)
(declare-fun sym681 () String)
(declare-fun sym363 () String)
(declare-fun sym485 () String)
(declare-fun sym289 () String)
(declare-fun sym445 () String)
(declare-fun sym160 () String)
(declare-fun sym338 () String)
(declare-fun sym615 () String)
(declare-fun sym419 () String)
(declare-fun sym571 () String)
(declare-fun sym175 () String)
(declare-fun sym373 () String)
(declare-fun sym254 () String)
(declare-fun sym299 () String)
(declare-fun sym651 () String)
(declare-fun sym135 () String)
(declare-fun sym499 () String)
(declare-fun sym455 () String)
(declare-fun sym533 () String)
(declare-fun sym215 () String)
(declare-fun sym691 () String)
(declare-fun sym20 () String)
(declare-fun sym547 () String)
(declare-fun sym625 () String)
(declare-fun sym429 () String)
(declare-fun sym705 () String)
(declare-fun sym509 () String)
(declare-fun sym264 () String)
(declare-fun sym661 () String)
(declare-fun sym465 () String)
(declare-fun sym389 () String)
(declare-fun sym225 () String)
(declare-fun sym185 () String)
(declare-fun sym581 () String)
(declare-fun sym557 () String)
(declare-fun sym635 () String)
(declare-fun sym239 () String)
(declare-fun sym715 () String)
(declare-fun sym519 () String)
(declare-fun sym671 () String)
(declare-fun sym353 () String)
(declare-fun sym475 () String)
(declare-fun sym113 () String)
(declare-fun sym399 () String)
(declare-fun sym279 () String)
(declare-fun sym313 () String)
(declare-fun sym150 () String)
(declare-fun sym195 () String)
(declare-fun sym591 () String)
(declare-fun L27  () String)
(declare-fun L39  () String)
(declare-fun L106  () String)
(declare-fun L35  () String)
(declare-fun L47  () String)
(declare-fun L15  () String)
(declare-fun L59  () String)
(declare-fun L7  () String)
(declare-fun L63  () String)
(declare-fun L43  () String)
(declare-fun L55  () String)
(declare-fun L3  () String)
(declare-fun L51  () String)
(declare-fun L102  () String)
(declare-fun L18  () String)
(declare-fun L34  () String)
(declare-fun L78  () String)
(declare-fun L14  () String)
(declare-fun L26  () String)
(declare-fun L30  () String)
(declare-fun L74  () String)
(declare-fun L8  () String)
(declare-fun L86  () String)
(declare-fun L10  () String)
(declare-fun L98  () String)
(declare-fun L22  () String)
(declare-fun L66  () String)
(declare-fun L70  () String)
(declare-fun L4  () String)
(declare-fun L82  () String)
(declare-fun L94  () String)
(declare-fun L0  () String)
(declare-fun L90  () String)
(declare-fun L49  () String)
(declare-fun L17  () String)
(declare-fun L45  () String)
(declare-fun L57  () String)
(declare-fun L25  () String)
(declare-fun L104  () String)
(declare-fun L37  () String)
(declare-fun L41  () String)
(declare-fun L53  () String)
(declare-fun L5  () String)
(declare-fun L1  () String)
(declare-fun L61  () String)
(declare-fun L100  () String)
(declare-fun L16  () String)
(declare-fun L28  () String)
(declare-fun L12  () String)
(declare-fun L24  () String)
(declare-fun L68  () String)
(declare-fun L96  () String)
(declare-fun L20  () String)
(declare-fun L32  () String)
(declare-fun L76  () String)
(declare-fun L6  () String)
(declare-fun L88  () String)
(declare-fun L92  () String)
(declare-fun L72  () String)
(declare-fun L2  () String)
(declare-fun L84  () String)
(declare-fun L80  () String)
(assert (toLower sym289  L80 ))
(assert (toLower sym353  L84 ))
(assert (toLower sym475  L2 ))
(assert (toLower sym661  L72 ))
(assert (toLower sym509  L92 ))
(assert (toLower sym239  L88 ))
(assert (toLower sym715  L6 ))
(assert (toLower sym195  L76 ))
(assert (toLower sym455  L32 ))
(assert (toLower sym409  L20 ))
(assert (toLower sym581  L96 ))
(assert (toLower sym399  L68 ))
(assert (toLower sym429  L24 ))
(assert (toLower sym571  L12 ))
(assert (toLower sym519  L28 ))
(assert (toLower sym113  L16 ))
(assert (toLower sym205  L100 ))
(assert (toLower sym313  L61 ))
(assert (toLower "name"  L1 ))
(assert (toLower "field"  L5 ))
(assert (toLower sym485  L53 ))
(assert (toLower sym557  L41 ))
(assert (toLower sym725  L37 ))
(assert (toLower sym419  L104 ))
(assert (toLower "option"  L25 ))
(assert (toLower sym185  L57 ))
(assert (toLower sym215  L45 ))
(assert (toLower "database"  L17 ))
(assert (toLower sym160  L49 ))
(assert (toLower sym373  L90 ))
(assert (toLower sym705  L0 ))
(assert (toLower sym533  L94 ))
(assert (toLower sym254  L82 ))
(assert (toLower sym299  L4 ))
(assert (toLower sym150  L70 ))
(assert (toLower sym465  L66 ))
(assert (toLower sym681  L22 ))
(assert (toLower sym389  L98 ))
(assert (toLower sym445  L10 ))
(assert (toLower sym691  L86 ))
(assert (toLower sym499  L8 ))
(assert (toLower sym135  L74 ))
(assert (toLower sym605  L30 ))
(assert (toLower sym225  L26 ))
(assert (toLower sym671  L14 ))
(assert (toLower sym591  L78 ))
(assert (toLower sym20  L34 ))
(assert (toLower sym338  L18 ))
(assert (toLower sym651  L102 ))
(assert (toLower sym279  L51 ))
(assert (toLower "length"  L3 ))
(assert (toLower sym264  L55 ))
(assert (toLower sym363  L43 ))
(assert (toLower sym175  L63 ))
(assert (toLower "description"  L7 ))
(assert (toLower sym625  L59 ))
(assert (toLower "type"  L15 ))
(assert (toLower sym615  L47 ))
(assert (toLower sym547  L35 ))
(assert (toLower sym328  L106 ))
(assert (toLower sym635  L39 ))
(assert (toLower "table"  L27 ))

(assert (not (= L0 L1 )))
(assert (not (= L2 L3 )))
(assert (= L4 L5 ))
(assert (not (= L6 L7 )))
(assert (not (= L8 L1 )))
(assert (not (= L10 L1 )))
(assert (not (= L12 L1 )))
(assert (not (= L14 L15 )))
(assert (= L16 L17 ))
(assert (= L18 L7 ))
(assert (not (= L20 L15 )))
(assert (not (= L22 L3 )))
(assert (= L24 L25 ))
(assert (= L26 L27 ))
(assert (= L28 L5 ))
(assert (not (= L30 L1 )))
(assert (not (= L32 L7 )))
(assert (not (= L34 "html" )))
(assert (not (= L35 L1 )))
(assert (not (= L37 L5 )))
(assert (= L39 L3 ))
(assert (= L41 L7 ))
(assert (not (= L43 L7 )))
(assert (not (= L45 L7 )))
(assert (not (= L47 L7 )))
(assert (= L49 L7 ))
(assert (not (= L51 L1 )))
(assert (= L53 L25 ))
(assert (= L55 L7 ))
(assert (not (= L57 L7 )))
(assert (not (= L59 L15 )))
(assert (= L61 L1 ))
(assert (not (= L63 L1 )))
(assert (not (= L34 "sql" )))
(assert (not (= L66 L15 )))
(assert (not (= L68 L7 )))
(assert (not (= L70 L1 )))
(assert (not (= L72 L7 )))
(assert (= L74 L1 ))
(assert (not (= L76 L27 )))
(assert (= L78 L15 ))
(assert (not (= L80 L7 )))
(assert (not (= L82 L1 )))
(assert (not (= L84 L1 )))
(assert (= L86 L25 ))
(assert (= L88 L1 ))
(assert (= L90 L15 ))
(assert (not (= L92 L7 )))
(assert (= L94 L1 ))
(assert (not (= L96 L7 )))
(assert (not (= L98 L1 )))
(assert (not (= L100 L1 )))
(assert (not (= L102 L1 )))
(assert (not (= L104 L3 )))
(assert (not (= L106 L1 )))
(check-sat)
(get-model)
(exit)
